c SAT Generator for power-law distributed variable frequencies
c -g u -v 20 -c 91 -k 3 -p 2.750000 -b 3.200000 -f /home/schmidt/Devel/ni-kop-sat/data/ensemble/ruf20-91/ruf20-91-702 -u 1 -U 1 -s 4242666308
p cnf 20 91
-11 -13 17 0
-11 14 16 0
3 -11 14 0
8 -13 18 0
-1 3 7 0
-5 -12 -13 0
-2 -15 -16 0
7 -8 -11 0
6 8 19 0
8 14 16 0
-7 -10 18 0
2 5 16 0
-3 -5 -12 0
-9 18 20 0
13 -16 19 0
-8 13 18 0
-3 -4 -6 0
-9 -15 -18 0
4 -16 -20 0
-9 12 15 0
6 13 -20 0
2 -5 14 0
-2 -9 -10 0
-4 5 -9 0
5 -9 12 0
3 4 -20 0
3 7 10 0
-8 -16 -20 0
4 12 -16 0
-4 -7 18 0
5 -8 13 0
-7 -15 -18 0
-1 9 -19 0
8 12 -14 0
-9 -14 -19 0
-8 15 -16 0
-5 7 -12 0
-6 -15 16 0
-5 -18 -19 0
-12 -13 -20 0
-1 -3 19 0
-2 -4 -17 0
3 13 -19 0
6 18 19 0
1 -2 -5 0
-3 -4 -14 0
2 12 16 0
6 -11 20 0
-12 -15 16 0
-12 13 -14 0
-4 -6 -14 0
1 13 -16 0
7 9 -20 0
-6 15 18 0
-7 -9 15 0
-2 5 12 0
-2 -5 -18 0
3 11 13 0
10 -12 -14 0
8 -16 -17 0
-9 10 16 0
1 -5 8 0
-8 12 13 0
2 -4 -12 0
-1 -2 11 0
-1 -4 -7 0
-1 16 17 0
-13 -16 18 0
-2 10 12 0
-6 10 13 0
12 15 17 0
7 8 -17 0
-6 10 16 0
-4 -18 -19 0
7 8 -19 0
-4 -12 -15 0
-1 6 -10 0
-5 -15 19 0
-6 -9 -18 0
4 -7 19 0
-8 12 20 0
2 4 10 0
13 15 16 0
-7 -8 -14 0
2 -3 -11 0
-2 6 -14 0
3 6 -9 0
1 3 -18 0
-5 -6 -14 0
4 12 14 0
9 -13 16 0
